param n := 120;
param c := 3000
param : V : p w :=
   0	 404	 394
   1	 290	 280
   2	 336	 326
   3	 380	 370
   4	 294	 284
   5	 356	 346
   6	 437	 427
   7	 269	 259
   8	 324	 314
   9	 440	 430
  10	 280	 270
  11	 310	 300
  12	 472	 462
  13	 271	 261
  14	 287	 277
  15	 366	 356
  16	 302	 292
  17	 362	 352
  18	 508	 498
  19	 260	 250
  20	 262	 252
  21	 442	 432
  22	 286	 276
  23	 302	 292
  24	 401	 391
  25	 262	 252
  26	 367	 357
  27	 407	 397
  28	 284	 274
  29	 339	 329
  30	 500	 490
  31	 261	 251
  32	 269	 259
  33	 418	 408
  34	 266	 256
  35	 346	 336
  36	 444	 434
  37	 272	 262
  38	 314	 304
  39	 492	 482
  40	 266	 256
  41	 272	 262
  42	 397	 387
  43	 285	 275
  44	 348	 338
  45	 372	 362
  46	 303	 293
  47	 355	 345
  48	 438	 428
  49	 294	 284
  50	 298	 288
  51	 418	 408
  52	 298	 288
  53	 314	 304
  54	 490	 480
  55	 260	 250
  56	 280	 270
  57	 404	 394
  58	 286	 276
  59	 340	 330
  60	 371	 361
  61	 263	 253
  62	 396	 386
  63	 385	 375
  64	 291	 281
  65	 354	 344
  66	 488	 478
  67	 261	 251
  68	 281	 271
  69	 488	 478
  70	 260	 250
  71	 282	 272
  72	 366	 356
  73	 286	 276
  74	 378	 368
  75	 397	 387
  76	 279	 269
  77	 354	 344
  78	 496	 486
  79	 262	 252
  80	 272	 262
  81	 424	 414
  82	 273	 263
  83	 333	 323
  84	 420	 410
  85	 260	 250
  86	 350	 340
  87	 410	 400
  88	 305	 295
  89	 315	 305
  90	 392	 382
  91	 292	 282
  92	 346	 336
  93	 444	 434
  94	 279	 269
  95	 307	 297
  96	 405	 395
  97	 288	 278
  98	 337	 327
  99	 363	 353
 100	 291	 281
 101	 376	 366
 102	 429	 419
 103	 295	 285
 104	 306	 296
 105	 372	 362
 106	 324	 314
 107	 334	 324
 108	 505	 495
 109	 261	 251
 110	 264	 254
 111	 509	 499
 112	 260	 250
 113	 261	 251
 114	 374	 364
 115	 299	 289
 116	 357	 347
 117	 508	 498
 118	 260	 250
 119	 262	 252
;

set E :=
   0	   2
   0	   3
   0	   4
   0	   5
   0	   8
   0	  12
   0	  14
   0	  19
   0	  24
   0	  25
   0	  27
   0	  29
   0	  33
   0	  40
   0	  44
   0	  45
   0	  47
   0	  49
   0	  51
   0	  52
   0	  53
   0	  56
   0	  58
   0	  59
   0	  62
   0	  70
   0	  72
   0	  74
   0	  76
   0	  80
   0	  81
   0	  89
   0	  90
   0	  92
   0	  98
   0	  99
   0	 103
   0	 110
   0	 112
   0	 118
   1	   6
   1	   8
   1	  10
   1	  11
   1	  17
   1	  19
   1	  20
   1	  27
   1	  28
   1	  29
   1	  31
   1	  36
   1	  41
   1	  46
   1	  48
   1	  55
   1	  60
   1	  62
   1	  65
   1	  67
   1	  78
   1	  80
   1	  83
   1	  86
   1	  90
   1	  91
   1	  94
   1	 101
   1	 104
   1	 109
   1	 112
   1	 117
   1	 118
   1	 119
   2	   5
   2	   6
   2	   7
   2	  10
   2	  11
   2	  15
   2	  18
   2	  22
   2	  23
   2	  27
   2	  28
   2	  29
   2	  32
   2	  33
   2	  34
   2	  35
   2	  37
   2	  45
   2	  55
   2	  57
   2	  60
   2	  64
   2	  65
   2	  66
   2	  72
   2	  73
   2	  78
   2	  79
   2	  80
   2	  81
   2	  85
   2	  88
   2	  89
   2	  90
   2	  93
   2	  94
   2	 102
   2	 106
   2	 114
   2	 117
   3	   4
   3	  18
   3	  27
   3	  28
   3	  31
   3	  34
   3	  35
   3	  39
   3	  48
   3	  50
   3	  54
   3	  59
   3	  60
   3	  61
   3	  63
   3	  64
   3	  69
   3	  71
   3	  73
   3	  82
   3	  83
   3	  84
   3	  86
   3	  87
   3	  94
   3	  96
   3	 103
   3	 104
   3	 108
   3	 109
   3	 111
   3	 114
   3	 116
   3	 119
   4	  20
   4	  23
   4	  29
   4	  37
   4	  39
   4	  42
   4	  44
   4	  47
   4	  50
   4	  52
   4	  57
   4	  58
   4	  59
   4	  64
   4	  70
   4	  71
   4	  80
   4	  81
   4	  85
   4	  86
   4	  88
   4	  92
   4	  93
   4	  94
   4	  96
   4	  98
   4	 106
   4	 108
   4	 110
   4	 112
   4	 113
   4	 115
   4	 118
   5	   7
   5	   9
   5	  12
   5	  16
   5	  17
   5	  19
   5	  20
   5	  23
   5	  30
   5	  36
   5	  39
   5	  40
   5	  41
   5	  42
   5	  50
   5	  59
   5	  67
   5	  68
   5	  75
   5	  77
   5	  81
   5	  83
   5	  84
   5	  87
   5	  89
   5	  97
   5	  98
   5	 106
   5	 107
   5	 113
   5	 119
   6	   7
   6	  11
   6	  12
   6	  13
   6	  23
   6	  24
   6	  25
   6	  26
   6	  30
   6	  32
   6	  34
   6	  35
   6	  41
   6	  45
   6	  46
   6	  47
   6	  48
   6	  50
   6	  53
   6	  56
   6	  63
   6	  66
   6	  67
   6	  69
   6	  70
   6	  71
   6	  72
   6	  73
   6	  76
   6	  84
   6	  85
   6	  86
   6	  89
   6	  90
   6	  95
   6	  98
   6	 103
   6	 111
   6	 115
   6	 117
   7	   8
   7	   9
   7	  12
   7	  16
   7	  17
   7	  19
   7	  23
   7	  24
   7	  27
   7	  31
   7	  32
   7	  38
   7	  39
   7	  45
   7	  49
   7	  52
   7	  55
   7	  56
   7	  58
   7	  63
   7	  65
   7	  70
   7	  73
   7	  74
   7	  80
   7	  89
   7	  91
   7	 100
   7	 102
   7	 104
   7	 112
   8	   9
   8	  17
   8	  22
   8	  23
   8	  24
   8	  27
   8	  29
   8	  36
   8	  38
   8	  42
   8	  45
   8	  49
   8	  50
   8	  51
   8	  52
   8	  57
   8	  59
   8	  61
   8	  72
   8	  73
   8	  77
   8	  81
   8	  85
   8	  89
   8	  90
   8	  92
   8	  94
   8	  95
   8	  98
   8	 106
   8	 111
   8	 113
   8	 114
   8	 116
   9	  10
   9	  11
   9	  13
   9	  18
   9	  19
   9	  24
   9	  26
   9	  28
   9	  30
   9	  34
   9	  36
   9	  40
   9	  47
   9	  50
   9	  53
   9	  54
   9	  58
   9	  59
   9	  60
   9	  66
   9	  70
   9	  76
   9	  79
   9	  80
   9	  83
   9	  84
   9	  86
   9	  87
   9	  90
   9	  91
   9	  92
   9	  98
   9	 101
   9	 104
   9	 107
   9	 108
   9	 109
   9	 111
   9	 112
   9	 115
  10	  11
  10	  17
  10	  32
  10	  36
  10	  39
  10	  40
  10	  41
  10	  43
  10	  45
  10	  46
  10	  50
  10	  52
  10	  66
  10	  68
  10	  70
  10	  71
  10	  72
  10	  73
  10	  78
  10	  81
  10	  84
  10	  87
  10	  88
  10	  89
  10	  90
  10	  92
  10	  94
  10	  97
  10	  98
  10	 102
  10	 103
  10	 104
  10	 107
  10	 109
  10	 112
  10	 113
  10	 114
  10	 115
  10	 117
  11	  13
  11	  17
  11	  27
  11	  33
  11	  37
  11	  46
  11	  48
  11	  54
  11	  60
  11	  68
  11	  87
  11	  88
  11	  89
  11	  90
  11	  94
  11	  96
  11	  97
  11	  98
  11	 104
  11	 108
  11	 109
  11	 113
  11	 115
  11	 117
  11	 118
  11	 119
  12	  20
  12	  24
  12	  29
  12	  32
  12	  44
  12	  45
  12	  47
  12	  49
  12	  59
  12	  60
  12	  61
  12	  62
  12	  67
  12	  71
  12	  72
  12	  79
  12	  81
  12	  82
  12	  85
  12	  87
  12	  88
  12	  90
  12	  98
  12	 103
  12	 106
  12	 110
  12	 113
  12	 117
  12	 118
  13	  16
  13	  22
  13	  42
  13	  46
  13	  50
  13	  55
  13	  56
  13	  59
  13	  61
  13	  62
  13	  68
  13	  70
  13	  71
  13	  72
  13	  73
  13	  74
  13	  78
  13	  82
  13	  83
  13	  85
  13	  89
  13	  90
  13	  94
  13	  95
  13	  96
  13	  99
  13	 106
  13	 108
  13	 112
  13	 113
  13	 116
  13	 119
  14	  20
  14	  22
  14	  24
  14	  34
  14	  35
  14	  39
  14	  43
  14	  52
  14	  54
  14	  55
  14	  57
  14	  58
  14	  59
  14	  60
  14	  78
  14	  81
  14	  83
  14	  84
  14	  85
  14	  86
  14	  92
  14	  98
  14	 101
  14	 103
  14	 106
  14	 110
  14	 112
  15	  17
  15	  21
  15	  23
  15	  24
  15	  32
  15	  34
  15	  35
  15	  39
  15	  47
  15	  50
  15	  52
  15	  53
  15	  57
  15	  58
  15	  59
  15	  60
  15	  69
  15	  72
  15	  75
  15	  81
  15	  85
  15	  96
  15	  98
  15	 101
  15	 103
  15	 107
  15	 116
  15	 117
  16	  18
  16	  20
  16	  24
  16	  26
  16	  34
  16	  40
  16	  46
  16	  48
  16	  51
  16	  55
  16	  59
  16	  61
  16	  63
  16	  64
  16	  66
  16	  68
  16	  69
  16	  72
  16	  73
  16	  86
  16	  87
  16	  89
  16	  90
  16	 100
  16	 107
  16	 111
  16	 118
  17	  19
  17	  28
  17	  39
  17	  42
  17	  43
  17	  45
  17	  53
  17	  56
  17	  59
  17	  60
  17	  65
  17	  68
  17	  70
  17	  80
  17	  81
  17	  82
  17	  84
  17	  91
  17	  92
  17	  96
  17	  98
  17	 107
  17	 109
  17	 112
  17	 113
  17	 116
  17	 117
  17	 119
  18	  19
  18	  21
  18	  23
  18	  24
  18	  28
  18	  32
  18	  34
  18	  35
  18	  39
  18	  40
  18	  43
  18	  45
  18	  53
  18	  58
  18	  60
  18	  61
  18	  62
  18	  63
  18	  67
  18	  69
  18	  75
  18	  77
  18	  79
  18	  82
  18	  83
  18	  88
  18	  94
  18	  96
  18	  97
  18	  98
  18	 101
  18	 103
  18	 104
  18	 112
  18	 113
  18	 115
  18	 117
  18	 119
  19	  25
  19	  26
  19	  34
  19	  44
  19	  47
  19	  48
  19	  52
  19	  54
  19	  57
  19	  59
  19	  60
  19	  61
  19	  62
  19	  67
  19	  68
  19	  70
  19	  75
  19	  76
  19	  84
  19	  85
  19	  87
  19	  89
  19	  94
  19	  96
  19	  99
  19	 106
  19	 111
  19	 114
  20	  21
  20	  26
  20	  33
  20	  34
  20	  36
  20	  37
  20	  38
  20	  40
  20	  42
  20	  48
  20	  60
  20	  61
  20	  62
  20	  68
  20	  69
  20	  74
  20	  78
  20	  80
  20	  82
  20	  96
  20	 105
  20	 115
  20	 118
  21	  22
  21	  26
  21	  29
  21	  31
  21	  35
  21	  38
  21	  39
  21	  43
  21	  45
  21	  46
  21	  50
  21	  53
  21	  57
  21	  62
  21	  68
  21	  70
  21	  74
  21	  83
  21	  87
  21	  92
  21	  93
  21	  94
  21	  97
  21	  98
  21	  99
  21	 100
  21	 101
  21	 104
  21	 112
  21	 114
  21	 115
  21	 117
  21	 118
  21	 119
  22	  23
  22	  28
  22	  30
  22	  33
  22	  34
  22	  35
  22	  36
  22	  39
  22	  41
  22	  42
  22	  45
  22	  47
  22	  48
  22	  49
  22	  52
  22	  59
  22	  60
  22	  61
  22	  64
  22	  65
  22	  74
  22	  75
  22	  76
  22	  77
  22	  78
  22	  82
  22	  89
  22	  95
  22	 104
  22	 106
  22	 108
  22	 109
  22	 110
  22	 117
  23	  32
  23	  35
  23	  36
  23	  37
  23	  43
  23	  48
  23	  49
  23	  50
  23	  51
  23	  59
  23	  64
  23	  69
  23	  70
  23	  75
  23	  79
  23	  80
  23	  82
  23	  83
  23	  86
  23	  87
  23	  90
  23	  92
  23	  98
  23	  99
  23	 103
  23	 111
  23	 114
  23	 119
  24	  25
  24	  28
  24	  33
  24	  37
  24	  39
  24	  41
  24	  42
  24	  48
  24	  49
  24	  53
  24	  54
  24	  60
  24	  61
  24	  66
  24	  68
  24	  71
  24	  74
  24	  75
  24	  81
  24	  82
  24	  84
  24	  90
  24	  91
  24	  92
  24	  93
  24	  94
  24	 100
  24	 102
  24	 105
  24	 106
  24	 109
  24	 111
  24	 112
  24	 113
  25	  26
  25	  30
  25	  37
  25	  42
  25	  45
  25	  47
  25	  48
  25	  49
  25	  52
  25	  53
  25	  59
  25	  60
  25	  63
  25	  64
  25	  67
  25	  68
  25	  69
  25	  71
  25	  75
  25	  81
  25	  85
  25	  89
  25	  90
  25	  91
  25	  92
  25	  99
  25	 101
  25	 102
  25	 103
  25	 108
  25	 109
  25	 113
  25	 115
  25	 116
  25	 117
  26	  27
  26	  32
  26	  33
  26	  35
  26	  36
  26	  37
  26	  43
  26	  47
  26	  50
  26	  52
  26	  54
  26	  55
  26	  61
  26	  66
  26	  69
  26	  71
  26	  75
  26	  80
  26	  83
  26	  87
  26	  90
  26	  92
  26	  93
  26	 107
  26	 108
  26	 109
  26	 113
  26	 114
  26	 115
  26	 119
  27	  32
  27	  33
  27	  34
  27	  38
  27	  42
  27	  43
  27	  49
  27	  50
  27	  71
  27	  75
  27	  76
  27	  79
  27	  81
  27	  87
  27	  91
  27	  92
  27	  94
  27	  95
  27	 106
  27	 109
  27	 114
  27	 115
  27	 116
  27	 118
  28	  35
  28	  37
  28	  39
  28	  43
  28	  54
  28	  55
  28	  60
  28	  64
  28	  68
  28	  69
  28	  72
  28	  78
  28	  92
  28	  93
  28	  96
  28	  98
  28	  99
  28	 106
  29	  30
  29	  34
  29	  41
  29	  43
  29	  44
  29	  45
  29	  46
  29	  51
  29	  56
  29	  59
  29	  60
  29	  61
  29	  65
  29	  67
  29	  70
  29	  72
  29	  75
  29	  78
  29	  80
  29	  84
  29	  85
  29	  86
  29	  87
  29	  88
  29	  89
  29	  90
  29	  92
  29	  96
  29	 107
  29	 110
  29	 115
  29	 117
  30	  33
  30	  35
  30	  36
  30	  40
  30	  41
  30	  46
  30	  47
  30	  50
  30	  52
  30	  57
  30	  63
  30	  64
  30	  67
  30	  69
  30	  73
  30	  81
  30	  82
  30	  85
  30	  88
  30	  90
  30	  91
  30	  93
  30	  95
  30	  97
  30	 106
  30	 108
  30	 111
  30	 116
  31	  37
  31	  43
  31	  48
  31	  51
  31	  53
  31	  56
  31	  68
  31	  71
  31	  73
  31	  76
  31	  78
  31	  79
  31	  83
  31	  96
  31	 100
  31	 102
  31	 105
  31	 107
  31	 108
  31	 109
  31	 111
  31	 115
  31	 117
  31	 118
  31	 119
  32	  33
  32	  38
  32	  39
  32	  41
  32	  46
  32	  48
  32	  50
  32	  51
  32	  55
  32	  62
  32	  65
  32	  69
  32	  79
  32	  80
  32	  84
  32	  85
  32	  88
  32	  89
  32	  94
  32	  95
  32	  99
  32	 100
  32	 101
  32	 106
  32	 107
  32	 110
  32	 113
  32	 116
  33	  34
  33	  36
  33	  38
  33	  39
  33	  43
  33	  45
  33	  49
  33	  51
  33	  52
  33	  53
  33	  57
  33	  62
  33	  67
  33	  68
  33	  69
  33	  71
  33	  73
  33	  74
  33	  80
  33	  82
  33	  86
  33	  87
  33	  89
  33	  91
  33	  95
  33	 101
  33	 103
  33	 105
  33	 106
  33	 113
  33	 114
  34	  38
  34	  41
  34	  50
  34	  51
  34	  52
  34	  55
  34	  58
  34	  62
  34	  63
  34	  64
  34	  68
  34	  74
  34	  75
  34	  76
  34	  78
  34	  82
  34	  87
  34	  89
  34	  92
  34	  94
  34	  97
  34	 100
  34	 101
  34	 105
  34	 108
  34	 113
  34	 115
  35	  44
  35	  58
  35	  59
  35	  61
  35	  64
  35	  69
  35	  73
  35	  75
  35	  76
  35	  85
  35	  87
  35	  89
  35	  94
  35	  95
  35	  97
  35	 100
  35	 102
  35	 103
  35	 108
  35	 111
  35	 112
  35	 113
  35	 114
  36	  37
  36	  38
  36	  44
  36	  45
  36	  51
  36	  54
  36	  59
  36	  60
  36	  64
  36	  69
  36	  70
  36	  72
  36	  79
  36	  80
  36	  83
  36	  87
  36	  89
  36	  92
  36	  93
  36	  94
  36	 100
  36	 102
  36	 104
  36	 114
  36	 115
  36	 116
  37	  46
  37	  53
  37	  55
  37	  56
  37	  58
  37	  62
  37	  64
  37	  69
  37	  70
  37	  72
  37	  77
  37	  80
  37	  87
  37	  88
  37	  90
  37	  92
  37	  94
  37	  95
  37	  98
  37	 100
  37	 101
  37	 103
  37	 105
  37	 108
  37	 113
  37	 114
  37	 115
  38	  39
  38	  40
  38	  48
  38	  49
  38	  50
  38	  51
  38	  58
  38	  63
  38	  67
  38	  74
  38	  76
  38	  77
  38	  79
  38	  82
  38	  85
  38	  86
  38	  87
  38	  97
  38	  98
  38	 105
  38	 111
  38	 112
  38	 114
  39	  40
  39	  41
  39	  42
  39	  47
  39	  49
  39	  55
  39	  58
  39	  69
  39	  70
  39	  74
  39	  76
  39	  78
  39	  79
  39	  82
  39	  85
  39	  87
  39	  91
  39	  92
  39	  94
  39	  96
  39	  99
  39	 107
  39	 110
  39	 112
  39	 113
  39	 119
  40	  48
  40	  51
  40	  52
  40	  53
  40	  54
  40	  63
  40	  69
  40	  77
  40	  78
  40	  82
  40	  84
  40	  86
  40	  89
  40	  92
  40	  93
  40	  98
  40	  99
  40	 100
  40	 103
  40	 104
  40	 106
  40	 108
  40	 115
  40	 116
  40	 118
  40	 119
  41	  43
  41	  53
  41	  59
  41	  66
  41	  67
  41	  69
  41	  70
  41	  74
  41	  85
  41	  87
  41	  88
  41	  90
  41	  92
  41	  94
  41	 107
  41	 110
  41	 111
  41	 115
  41	 117
  42	  43
  42	  44
  42	  45
  42	  46
  42	  47
  42	  50
  42	  52
  42	  60
  42	  61
  42	  63
  42	  66
  42	  69
  42	  70
  42	  76
  42	  79
  42	  81
  42	  85
  42	  91
  42	  93
  42	  96
  42	  97
  42	 102
  42	 103
  42	 104
  42	 109
  42	 114
  42	 116
  43	  46
  43	  48
  43	  49
  43	  51
  43	  53
  43	  63
  43	  67
  43	  68
  43	  73
  43	  82
  43	  85
  43	  87
  43	  88
  43	  92
  43	  99
  43	 101
  43	 104
  43	 106
  43	 107
  43	 109
  43	 111
  43	 114
  44	  51
  44	  56
  44	  57
  44	  58
  44	  59
  44	  62
  44	  63
  44	  68
  44	  70
  44	  72
  44	  76
  44	  77
  44	  78
  44	  79
  44	  82
  44	  84
  44	  97
  44	 100
  44	 103
  44	 104
  44	 105
  44	 107
  44	 111
  44	 116
  44	 119
  45	  46
  45	  52
  45	  56
  45	  57
  45	  58
  45	  65
  45	  66
  45	  73
  45	  76
  45	  77
  45	  81
  45	  82
  45	  84
  45	  87
  45	  88
  45	  89
  45	  91
  45	  92
  45	  95
  45	  99
  45	 100
  45	 101
  45	 102
  45	 107
  45	 108
  45	 111
  45	 112
  45	 114
  45	 116
  46	  55
  46	  57
  46	  58
  46	  61
  46	  65
  46	  70
  46	  71
  46	  72
  46	  77
  46	  78
  46	  80
  46	  84
  46	  90
  46	  92
  46	  95
  46	 100
  46	 102
  46	 104
  46	 106
  46	 112
  46	 117
  46	 118
  46	 119
  47	  48
  47	  49
  47	  50
  47	  52
  47	  53
  47	  55
  47	  65
  47	  67
  47	  68
  47	  70
  47	  72
  47	  75
  47	  80
  47	  81
  47	  82
  47	  83
  47	  87
  47	  88
  47	  98
  47	 101
  47	 102
  47	 107
  47	 110
  47	 119
  48	  49
  48	  52
  48	  61
  48	  62
  48	  63
  48	  71
  48	  72
  48	  73
  48	  74
  48	  87
  48	  91
  48	  92
  48	  98
  48	 100
  48	 101
  48	 107
  48	 113
  48	 119
  49	  50
  49	  51
  49	  58
  49	  67
  49	  72
  49	  77
  49	  80
  49	  86
  49	  95
  49	  97
  49	 105
  49	 106
  49	 113
  49	 114
  49	 115
  49	 119
  50	  51
  50	  53
  50	  57
  50	  69
  50	  71
  50	  73
  50	  76
  50	  77
  50	  79
  50	  80
  50	  81
  50	  86
  50	  88
  50	  90
  50	 102
  50	 104
  50	 105
  50	 107
  50	 111
  50	 114
  50	 119
  51	  54
  51	  56
  51	  57
  51	  60
  51	  65
  51	  68
  51	  75
  51	  78
  51	  85
  51	  86
  51	  88
  51	  90
  51	  91
  51	  93
  51	  96
  51	 100
  51	 104
  51	 112
  52	  58
  52	  60
  52	  63
  52	  65
  52	  66
  52	  68
  52	  71
  52	  74
  52	  75
  52	  77
  52	  85
  52	  88
  52	  90
  52	  91
  52	  92
  52	  93
  52	  95
  52	 100
  52	 101
  52	 102
  52	 104
  52	 107
  52	 111
  52	 117
  53	  55
  53	  56
  53	  59
  53	  62
  53	  64
  53	  76
  53	  77
  53	  80
  53	  81
  53	  82
  53	  84
  53	  90
  53	  92
  53	  93
  53	  99
  53	 104
  53	 106
  53	 111
  53	 116
  54	  55
  54	  58
  54	  60
  54	  64
  54	  77
  54	  79
  54	  80
  54	  81
  54	  82
  54	  84
  54	  86
  54	  87
  54	  89
  54	  93
  54	  94
  54	  95
  54	 101
  54	 104
  54	 111
  54	 113
  54	 114
  55	  57
  55	  60
  55	  61
  55	  63
  55	  66
  55	  74
  55	  78
  55	  81
  55	  82
  55	  85
  55	  93
  55	  98
  55	 105
  55	 115
  56	  63
  56	  64
  56	  67
  56	  68
  56	  69
  56	  70
  56	  72
  56	  75
  56	  80
  56	  82
  56	  86
  56	  87
  56	  92
  56	  94
  56	  96
  56	  98
  56	 102
  56	 104
  56	 110
  56	 112
  56	 114
  56	 115
  56	 117
  56	 118
  56	 119
  57	  60
  57	  62
  57	  64
  57	  65
  57	  67
  57	  68
  57	  76
  57	  81
  57	  83
  57	  89
  57	  90
  57	  92
  57	  93
  57	  94
  57	  99
  57	 101
  57	 110
  57	 111
  57	 114
  57	 116
  57	 117
  58	  63
  58	  71
  58	  72
  58	  76
  58	  81
  58	  83
  58	  84
  58	  87
  58	  90
  58	  92
  58	 100
  58	 105
  58	 107
  58	 108
  58	 118
  59	  60
  59	  69
  59	  70
  59	  71
  59	  73
  59	  82
  59	  85
  59	  88
  59	  89
  59	  95
  59	  96
  59	  97
  59	  98
  59	 102
  59	 104
  59	 107
  59	 109
  59	 114
  59	 119
  60	  61
  60	  63
  60	  69
  60	  75
  60	  77
  60	  80
  60	  83
  60	  85
  60	  86
  60	  92
  60	  96
  60	  99
  60	 101
  60	 106
  60	 116
  60	 119
  61	  65
  61	  70
  61	  72
  61	  74
  61	  75
  61	  79
  61	  86
  61	  87
  61	  88
  61	  89
  61	  95
  61	 104
  61	 109
  61	 112
  61	 118
  61	 119
  62	  64
  62	  76
  62	  83
  62	  90
  62	  93
  62	  96
  62	  98
  62	  99
  62	 102
  62	 103
  62	 106
  62	 107
  62	 115
  62	 117
  63	  69
  63	  71
  63	  74
  63	  76
  63	  85
  63	  90
  63	  91
  63	  92
  63	  95
  63	  98
  63	  99
  63	 102
  63	 103
  63	 105
  63	 109
  63	 114
  63	 117
  64	  65
  64	  76
  64	  84
  64	  91
  64	  96
  64	  98
  64	 100
  64	 101
  64	 106
  64	 108
  64	 111
  64	 118
  64	 119
  65	  67
  65	  70
  65	  71
  65	  73
  65	  79
  65	  81
  65	  82
  65	  84
  65	  85
  65	  87
  65	  92
  65	  95
  65	 100
  65	 102
  65	 103
  65	 104
  65	 105
  65	 106
  65	 111
  65	 117
  65	 119
  66	  67
  66	  72
  66	  75
  66	  76
  66	  79
  66	  80
  66	  83
  66	  85
  66	  91
  66	  97
  66	  99
  66	 101
  66	 104
  66	 108
  66	 110
  66	 111
  66	 112
  66	 113
  66	 116
  66	 118
  67	  76
  67	  77
  67	  80
  67	  81
  67	  83
  67	  85
  67	  87
  67	  88
  67	  89
  67	  90
  67	  92
  67	  94
  67	 111
  67	 113
  67	 119
  68	  71
  68	  73
  68	  75
  68	  77
  68	  82
  68	  84
  68	  86
  68	  89
  68	  91
  68	  92
  68	  94
  68	 100
  68	 108
  68	 109
  68	 112
  68	 113
  68	 116
  68	 119
  69	  73
  69	  74
  69	  79
  69	  85
  69	  88
  69	  89
  69	  96
  69	  97
  69	  99
  69	 103
  69	 104
  69	 109
  69	 112
  69	 113
  69	 118
  70	  78
  70	  82
  70	  84
  70	  88
  70	  92
  70	  97
  70	  99
  70	 100
  70	 103
  70	 108
  70	 114
  70	 116
  71	  78
  71	  83
  71	  90
  71	  92
  71	  93
  71	  97
  71	  99
  71	 101
  71	 103
  71	 104
  71	 109
  71	 110
  71	 115
  72	  78
  72	  79
  72	  83
  72	  85
  72	  89
  72	  90
  72	  91
  72	  93
  72	  94
  72	  97
  72	 102
  72	 104
  72	 105
  72	 107
  72	 113
  72	 115
  72	 119
  73	  76
  73	  77
  73	  79
  73	  80
  73	  82
  73	  88
  73	  90
  73	  91
  73	  92
  73	  94
  73	  96
  73	 102
  73	 103
  73	 106
  73	 107
  73	 111
  73	 115
  73	 118
  74	  77
  74	  81
  74	  85
  74	  86
  74	  88
  74	  89
  74	  93
  74	  96
  74	  98
  74	 103
  74	 107
  74	 108
  74	 111
  74	 114
  74	 115
  74	 117
  75	  77
  75	  78
  75	  87
  75	  93
  75	  96
  75	 101
  75	 105
  75	 117
  76	  79
  76	  83
  76	  86
  76	  89
  76	  97
  76	 105
  76	 106
  76	 109
  76	 114
  76	 117
  76	 118
  77	  81
  77	  83
  77	  88
  77	  90
  77	  92
  77	  93
  77	  94
  77	  95
  77	  98
  77	 108
  77	 112
  77	 114
  77	 117
  77	 118
  78	  80
  78	  85
  78	  86
  78	  91
  78	  93
  78	  95
  78	  97
  78	 100
  78	 102
  78	 103
  78	 104
  78	 105
  78	 112
  78	 113
  79	  81
  79	  82
  79	  85
  79	  88
  79	  95
  79	  97
  79	 101
  79	 108
  79	 109
  79	 110
  79	 112
  79	 117
  79	 118
  79	 119
  80	  82
  80	  85
  80	  86
  80	  87
  80	  89
  80	  91
  80	 102
  80	 105
  80	 110
  80	 113
  80	 117
  80	 118
  81	  82
  81	  89
  81	  90
  81	  92
  81	  95
  81	 100
  81	 101
  81	 105
  81	 109
  81	 112
  81	 116
  82	 101
  82	 103
  82	 106
  82	 109
  82	 110
  82	 111
  82	 112
  82	 114
  82	 116
  83	  85
  83	  89
  83	  95
  83	  97
  83	 102
  83	 106
  83	 108
  83	 109
  83	 111
  83	 112
  84	  89
  84	  94
  84	 101
  84	 105
  84	 110
  84	 116
  84	 117
  85	  86
  85	  91
  85	  97
  85	 104
  85	 110
  85	 111
  86	  87
  86	  90
  86	  93
  86	 100
  86	 101
  86	 108
  86	 110
  87	  88
  87	  92
  87	  95
  87	  97
  87	 113
  87	 115
  87	 116
  88	  90
  88	  91
  88	 102
  88	 103
  88	 105
  88	 113
  88	 114
  88	 117
  88	 119
  89	  95
  89	 111
  89	 115
  90	  97
  90	 108
  90	 111
  90	 112
  90	 114
  90	 116
  91	  98
  91	  99
  91	 104
  91	 107
  91	 110
  91	 111
  91	 112
  91	 117
  92	  95
  92	  98
  92	  99
  92	 103
  92	 105
  92	 107
  92	 108
  92	 112
  92	 117
  92	 118
  92	 119
  93	  95
  93	  99
  93	 100
  93	 101
  93	 103
  93	 112
  93	 116
  93	 119
  94	  95
  94	  99
  94	 100
  94	 103
  94	 104
  94	 109
  94	 111
  94	 112
  94	 113
  94	 114
  94	 115
  94	 116
  94	 117
  94	 118
  95	  96
  95	  98
  95	  99
  95	 101
  95	 107
  95	 110
  95	 119
  96	 101
  96	 103
  96	 107
  96	 109
  97	 102
  97	 103
  97	 106
  97	 111
  97	 113
  97	 117
  97	 118
  98	 101
  98	 102
  98	 103
  98	 106
  98	 107
  98	 108
  98	 109
  99	 100
  99	 103
  99	 109
  99	 110
  99	 115
  99	 116
  99	 117
 100	 104
 100	 105
 100	 110
 100	 111
 100	 114
 100	 115
 101	 102
 101	 108
 101	 111
 101	 112
 101	 115
 101	 117
 101	 118
 101	 119
 102	 104
 102	 105
 102	 106
 102	 110
 102	 111
 102	 114
 103	 109
 103	 110
 103	 111
 103	 114
 103	 115
 103	 117
 104	 115
 104	 118
 104	 119
 105	 108
 105	 118
 106	 109
 106	 111
 106	 114
 106	 119
 107	 108
 107	 113
 107	 119
 108	 119
 109	 110
 109	 111
 109	 114
 109	 115
 109	 118
 110	 113
 110	 115
 111	 115
 111	 116
 112	 114
 112	 117
 113	 114
 113	 115
 113	 117
 113	 118
 113	 119
 114	 115
 115	 118
;
